c read Graph
c width = 10
c time = 30 ms
c width = 1
c time = 64 ms
c width = 1
c time = 4912 ms
s td 630 2 793
b 1 1
b 2 2
b 3 3
b 4 4
b 5 5 432
b 6 356 357
b 7 6 357
b 8 188 189
b 9 6 188
b 10 7
b 11 8 512
b 12 9 518
b 13 9 740
b 14 10 519
b 15 11 347
b 16 12
b 17 666 667
b 18 13 667
b 19 14 626
b 20 14 746
b 21 610 611
b 22 15 611
b 23 16
b 24 17 615
b 25 30 642
b 26 30 251
b 27 250 251
b 28 17 250
b 29 18
b 30 19 603
b 31 20
b 32 678 679
b 33 21 679
b 34 22 539
b 35 23
b 36 24
b 37 25 586
b 38 26
b 39 27 570
b 40 27 434
b 41 28 420
b 42 28 517
b 43 29 521
b 44 31 677
b 45 260 261
b 46 32 261
b 47 32 418
b 48 33
b 49 34 285
b 50 35 561
b 51 35 718
b 52 366 367
b 53 35 367
b 54 240 241
b 55 36 241
b 56 37 651
b 57 488 489
b 58 37 489
b 59 218 219
b 60 38 219
b 61 52 697
b 62 696 697
b 63 39 696
b 64 39 325
b 65 40 200
b 66 42 641
b 67 42 195
b 68 194 195
b 69 41 194
b 70 41 742
b 71 43 483
b 72 44
b 73 58 635
b 74 634 635
b 75 45 634
b 76 46 281
b 77 46 335
b 78 684 685
b 79 47 685
b 80 48 719
b 81 49
b 82 50
b 83 51 232
b 84 368 369
b 85 51 369
b 86 53 328
b 87 662 663
b 88 54 663
b 89 55
b 90 56 721
b 91 466 467
b 92 57 466
b 93 59 340
b 94 59 311
b 95 60 341
b 96 60 202
b 97 61 405
b 98 61 558
b 99 62
b 100 63 669
b 101 64 791
b 102 542 543
b 103 64 543
b 104 65 247
b 105 66 514
b 106 66 329
b 107 67 588
b 108 68
b 109 69
b 110 70 396
b 111 528 529
b 112 70 529
b 113 71
b 114 72 398
b 115 72 622
b 116 72 459
b 117 620 621
b 118 73 621
b 119 73 399
b 120 86 468
b 121 86 775
b 122 774 775
b 123 73 774
b 124 74
b 125 88 414
b 126 88 177
b 127 176 177
b 128 75 176
b 129 748 749
b 130 75 749
b 131 75 604
b 132 75 639
b 133 552 553
b 134 76 553
b 135 77
b 136 78
b 137 79
b 138 412 413
b 139 80 413
b 140 81
b 141 82
b 142 83 578
b 143 204 205
b 144 83 205
b 145 83 628
b 146 84 234
b 147 85 623
b 148 87
b 149 89 320
b 150 752 753
b 151 89 752
b 152 90 321
b 153 90 694
b 154 180 181
b 155 91 180
b 156 92 226
b 157 93
b 158 94 451
b 159 95 504
b 160 95 221
b 161 96 228
b 162 652 653
b 163 96 652
b 164 96 505
b 165 97 470
b 166 98 471
b 167 99 376
b 168 99 484
b 169 656 657
b 170 100 656
b 171 100 485
b 172 101 415
b 173 716 717
b 174 102 716
b 175 102 350
b 176 102 349
b 177 103
b 178 104 378
b 179 105 506
b 180 105 572
b 181 105 227
b 182 106 184
b 183 120 331
b 184 330 331
b 185 119 330
b 186 119 490
b 187 119 455
b 188 454 455
b 189 106 454
b 190 107 352
b 191 107 715
b 192 108 547
b 193 109 655
b 194 654 655
b 195 108 654
b 196 174 175
b 197 110 174
b 198 110 425
b 199 110 693
b 200 124 449
b 201 124 437
b 202 436 437
b 203 111 436
b 204 111 336
b 205 112 698
b 206 112 672
b 207 113 673
b 208 114 582
b 209 114 777
b 210 115 583
b 211 606 607
b 212 116 607
b 213 117 379
b 214 118
b 215 121 616
b 216 476 477
b 217 122 476
b 218 122 555
b 219 123 392
b 220 123 531
b 221 123 313
b 222 125 428
b 223 548 549
b 224 126 549
b 225 127
b 226 128 659
b 227 129 439
b 228 566 567
b 229 129 566
b 230 130 230
b 231 131
b 232 288 289
b 233 132 289
b 234 316 317
b 235 133 316
b 236 722 723
b 237 134 723
b 238 134 237
b 239 135 304
b 240 136 416
b 241 136 577
b 242 136 393
b 243 137 597
b 244 137 386
b 245 137 745
b 246 139 487
b 247 486 487
b 248 138 486
b 249 138 429
b 250 138 387
b 251 138 292
b 252 462 463
b 253 140 462
b 254 141 259
b 255 358 359
b 256 142 359
b 257 788 789
b 258 143 789
b 259 144
b 260 590 591
b 261 145 590
b 262 158 271
b 263 270 271
b 264 145 270
b 265 146
b 266 147 442
b 267 147 389
b 268 148 339
b 269 149
b 270 150 675
b 271 151 630
b 272 154 403
b 273 402 403
b 274 153 402
b 275 166 511
b 276 166 479
b 277 478 479
b 278 153 478
b 279 153 689
b 280 688 689
b 281 152 688
b 282 648 649
b 283 155 649
b 284 156
b 285 157 494
b 286 159 704
b 287 159 277
b 288 160
b 289 161 535
b 290 161 781
b 291 708 709
b 292 162 709
b 293 162 735
b 294 162 496
b 295 163 465
b 296 636 637
b 297 164 637
b 298 164 291
b 299 164 584
b 300 165
b 301 167
b 302 168 729
b 303 169
b 304 170 171
b 305 172 173
b 306 178
b 307 179
b 308 182
b 309 183
b 310 185
b 311 186 187
b 312 190
b 313 191
b 314 192 193
b 315 196
b 316 197
b 317 198
b 318 199
b 319 201
b 320 203
b 321 206
b 322 207
b 323 208
b 324 209
b 325 210 211
b 326 212 213
b 327 214
b 328 215
b 329 216 217
b 330 220
b 331 222
b 332 223
b 333 224
b 334 225
b 335 229
b 336 231
b 337 233
b 338 235
b 339 236
b 340 238 239
b 341 242 243
b 342 244
b 343 245
b 344 246
b 345 248
b 346 249
b 347 252
b 348 253
b 349 254 255
b 350 256
b 351 257
b 352 258
b 353 262
b 354 263
b 355 264 265
b 356 266
b 357 267
b 358 268 269
b 359 272 273
b 360 274 275
b 361 276
b 362 278
b 363 279
b 364 280
b 365 282 283
b 366 284
b 367 286 287
b 368 290
b 369 293
b 370 294
b 371 295
b 372 296
b 373 297
b 374 298 299
b 375 300 301
b 376 302 303
b 377 305
b 378 306
b 379 307
b 380 308
b 381 309
b 382 310
b 383 312
b 384 314
b 385 315
b 386 318 319
b 387 322 323
b 388 324
b 389 326
b 390 327
b 391 332
b 392 333
b 393 334
b 394 337
b 395 338
b 396 342
b 397 343
b 398 344
b 399 345
b 400 346
b 401 348
b 402 351
b 403 353
b 404 354
b 405 355
b 406 360
b 407 361
b 408 362
b 409 363
b 410 364
b 411 365
b 412 370
b 413 371
b 414 372 373
b 415 374
b 416 375
b 417 377
b 418 380 381
b 419 382
b 420 383
b 421 384
b 422 385
b 423 388
b 424 390
b 425 391
b 426 394
b 427 395
b 428 397
b 429 400 401
b 430 404
b 431 406
b 432 407
b 433 408 409
b 434 410
b 435 411
b 436 417
b 437 419
b 438 421
b 439 422
b 440 423
b 441 424
b 442 426
b 443 427
b 444 430
b 445 431
b 446 433
b 447 435
b 448 438
b 449 440
b 450 441
b 451 443
b 452 444
b 453 445
b 454 446
b 455 447
b 456 448
b 457 450
b 458 452
b 459 453
b 460 456
b 461 457
b 462 458
b 463 460 461
b 464 464
b 465 469
b 466 472
b 467 473
b 468 474 475
b 469 480
b 470 481
b 471 482
b 472 491
b 473 492
b 474 493
b 475 495
b 476 497
b 477 498 499
b 478 500
b 479 501
b 480 502 503
b 481 507
b 482 508 509
b 483 510
b 484 513
b 485 515
b 486 516
b 487 520
b 488 522
b 489 523
b 490 524
b 491 525
b 492 526
b 493 527
b 494 530
b 495 532 533
b 496 534
b 497 536
b 498 537
b 499 538
b 500 540 541
b 501 544
b 502 545
b 503 546
b 504 550
b 505 551
b 506 554
b 507 556
b 508 557
b 509 559
b 510 560
b 511 562 563
b 512 564 565
b 513 568 569
b 514 571
b 515 573
b 516 574 575
b 517 576
b 518 579
b 519 580
b 520 581
b 521 585
b 522 587
b 523 589
b 524 592
b 525 593
b 526 594 595
b 527 596
b 528 598
b 529 599
b 530 600
b 531 601
b 532 602
b 533 605
b 534 608
b 535 609
b 536 612
b 537 613
b 538 614
b 539 617
b 540 618 619
b 541 624
b 542 625
b 543 627
b 544 629
b 545 631
b 546 632
b 547 633
b 548 638
b 549 640
b 550 643
b 551 644
b 552 645
b 553 646 647
b 554 650
b 555 658
b 556 660 661
b 557 664
b 558 665
b 559 668
b 560 670
b 561 671
b 562 674
b 563 676
b 564 680 681
b 565 682
b 566 683
b 567 686
b 568 687
b 569 690
b 570 691
b 571 692
b 572 695
b 573 699
b 574 700
b 575 701
b 576 702
b 577 703
b 578 705
b 579 706 707
b 580 710 711
b 581 712
b 582 713
b 583 714
b 584 720
b 585 724 725
b 586 726
b 587 727
b 588 728
b 589 730
b 590 731
b 591 732
b 592 733
b 593 734
b 594 736
b 595 737
b 596 738
b 597 739
b 598 741
b 599 743
b 600 744
b 601 747
b 602 750
b 603 751
b 604 754 755
b 605 756 757
b 606 758
b 607 759
b 608 760 761
b 609 762
b 610 763
b 611 764
b 612 765
b 613 766
b 614 767
b 615 768
b 616 769
b 617 770
b 618 771
b 619 772 773
b 620 776
b 621 778 779
b 622 780
b 623 782
b 624 783
b 625 784
b 626 785
b 627 786
b 628 787
b 629 790
b 630 792 793
1 2
1 3
1 4
1 5
1 6
1 10
1 11
1 12
1 14
1 15
1 16
1 17
1 19
1 21
1 23
1 24
1 29
1 30
1 31
1 32
1 34
1 35
1 36
1 37
1 38
1 39
1 41
1 43
1 44
1 45
1 48
1 49
1 50
1 54
1 56
1 59
1 61
1 65
1 66
1 71
1 72
1 73
1 76
1 78
1 80
1 81
1 82
1 83
1 86
1 87
1 89
1 90
1 91
1 93
1 95
1 97
1 99
1 100
1 101
1 104
1 105
1 107
1 108
1 109
1 110
1 113
1 114
1 117
1 124
1 125
1 133
1 135
1 136
1 137
1 138
1 140
1 141
1 142
1 146
1 147
1 148
1 149
1 152
1 154
1 156
1 157
1 158
1 159
1 161
1 165
1 166
1 167
1 169
1 172
1 173
1 177
1 178
1 179
1 182
1 190
1 192
1 196
1 200
1 205
1 207
1 208
1 210
1 211
1 213
1 214
1 215
1 216
1 219
1 222
1 223
1 225
1 226
1 227
1 230
1 231
1 232
1 234
1 236
1 239
1 240
1 243
1 246
1 252
1 254
1 255
1 257
1 259
1 260
1 265
1 266
1 268
1 269
1 270
1 271
1 272
1 282
1 284
1 285
1 286
1 288
1 289
1 291
1 295
1 296
1 300
1 301
1 302
1 303
1 304
1 305
1 306
1 307
1 308
1 309
1 310
1 311
1 312
1 313
1 314
1 315
1 316
1 317
1 318
1 319
1 320
1 321
1 322
1 323
1 324
1 325
1 326
1 327
1 328
1 329
1 330
1 331
1 332
1 333
1 334
1 335
1 336
1 337
1 338
1 339
1 340
1 341
1 342
1 343
1 344
1 345
1 346
1 347
1 348
1 349
1 350
1 351
1 352
1 353
1 354
1 355
1 356
1 357
1 358
1 359
1 360
1 361
1 362
1 363
1 364
1 365
1 366
1 367
1 368
1 369
1 370
1 371
1 372
1 373
1 374
1 375
1 376
1 377
1 378
1 379
1 380
1 381
1 382
1 383
1 384
1 385
1 386
1 387
1 388
1 389
1 390
1 391
1 392
1 393
1 394
1 395
1 396
1 397
1 398
1 399
1 400
1 401
1 402
1 403
1 404
1 405
1 406
1 407
1 408
1 409
1 410
1 411
1 412
1 413
1 414
1 415
1 416
1 417
1 418
1 419
1 420
1 421
1 422
1 423
1 424
1 425
1 426
1 427
1 428
1 429
1 430
1 431
1 432
1 433
1 434
1 435
1 436
1 437
1 438
1 439
1 440
1 441
1 442
1 443
1 444
1 445
1 446
1 447
1 448
1 449
1 450
1 451
1 452
1 453
1 454
1 455
1 456
1 457
1 458
1 459
1 460
1 461
1 462
1 463
1 464
1 465
1 466
1 467
1 468
1 469
1 470
1 471
1 472
1 473
1 474
1 475
1 476
1 477
1 478
1 479
1 480
1 481
1 482
1 483
1 484
1 485
1 486
1 487
1 488
1 489
1 490
1 491
1 492
1 493
1 494
1 495
1 496
1 497
1 498
1 499
1 500
1 501
1 502
1 503
1 504
1 505
1 506
1 507
1 508
1 509
1 510
1 511
1 512
1 513
1 514
1 515
1 516
1 517
1 518
1 519
1 520
1 521
1 522
1 523
1 524
1 525
1 526
1 527
1 528
1 529
1 530
1 531
1 532
1 533
1 534
1 535
1 536
1 537
1 538
1 539
1 540
1 541
1 542
1 543
1 544
1 545
1 546
1 547
1 548
1 549
1 550
1 551
1 552
1 553
1 554
1 555
1 556
1 557
1 558
1 559
1 560
1 561
1 562
1 563
1 564
1 565
1 566
1 567
1 568
1 569
1 570
1 571
1 572
1 573
1 574
1 575
1 576
1 577
1 578
1 579
1 580
1 581
1 582
1 583
1 584
1 585
1 586
1 587
1 588
1 589
1 590
1 591
1 592
1 593
1 594
1 595
1 596
1 597
1 598
1 599
1 600
1 601
1 602
1 603
1 604
1 605
1 606
1 607
1 608
1 609
1 610
1 611
1 612
1 613
1 614
1 615
1 616
1 617
1 618
1 619
1 620
1 621
1 622
1 623
1 624
1 625
1 626
1 627
1 628
1 629
1 630
6 7
7 9
8 9
12 13
17 18
19 20
21 22
24 28
25 26
26 27
27 28
32 33
39 40
41 42
45 46
46 47
50 51
50 53
52 53
54 55
56 58
57 58
59 60
61 62
62 63
63 64
66 67
67 68
68 69
69 70
73 74
74 75
76 77
78 79
83 85
84 85
87 88
91 92
93 94
95 96
97 98
101 103
102 103
105 106
110 112
111 112
114 115
114 116
117 118
118 119
118 123
120 121
121 122
122 123
125 126
126 127
127 128
128 130
128 131
128 132
129 130
133 134
138 139
142 144
142 145
143 144
149 151
150 151
152 153
154 155
159 160
161 163
161 164
162 163
167 168
169 170
170 171
173 174
174 175
174 176
179 180
179 181
182 189
183 184
184 185
185 186
185 187
187 188
188 189
190 191
192 195
193 194
194 195
196 197
197 198
197 199
200 201
201 202
202 203
203 204
205 206
208 209
211 212
216 217
217 218
219 220
219 221
223 224
227 229
228 229
232 233
234 235
236 237
237 238
240 241
240 242
243 244
243 245
246 247
247 248
248 249
248 250
248 251
252 253
255 256
257 258
260 261
261 264
262 263
263 264
266 267
272 273
273 274
274 278
274 279
275 276
276 277
277 278
279 280
280 281
282 283
286 287
289 290
291 292
292 293
292 294
296 297
297 298
297 299
